job_count = 26 ;
duration = [|20, 17, 7|28, 18, 5|24, 17, 6|20, 9, 7|25, 14, 3|7, 13, 1|19, 7, 1|14, 9, 1|20, 14, 5|11, 2, 8|21, 8, 5|17, 4, 3|20, 13, 8|12, 2, 9|20, 6, 4|8, 16, 1|25, 14, 4|18, 7, 7|5, 19, 6|21, 4, 8|21, 5, 2|8, 8, 8|6, 12, 2|29, 13, 9|28, 10, 8|21, 19, 8|] ;
machine_count = 3 ;
cost = [|18, 25, 41|18, 33, 38|19, 28, 59|13, 22, 33|19, 30, 51|15, 27, 42|12, 23, 42|12, 31, 47|18, 20, 32|16, 38, 47|17, 21, 49|13, 37, 51|16, 34, 38|12, 27, 45|14, 33, 48|14, 25, 51|14, 33, 51|14, 21, 39|17, 26, 40|17, 35, 45|16, 35, 55|19, 24, 38|17, 27, 55|13, 23, 58|10, 33, 42|15, 36, 38|] ;
deadline = [58, 58, 58, 58, 58, 58, 58, 58, 58, 58, 58, 58, 58, 58, 58, 58, 58, 58, 58, 58, 58, 58, 58, 58, 58, 58] ;
release = [0, 0, 0, 0, 0, 0, 0, 0, 0, 0, 0, 0, 0, 0, 0, 0, 0, 0, 0, 0, 0, 0, 0, 0, 0, 0] ;
resource = [|1, 1, 1|1, 1, 1|8, 8, 8|7, 7, 7|6, 6, 6|4, 4, 4|8, 8, 8|5, 5, 5|8, 8, 8|5, 5, 5|5, 5, 5|2, 2, 2|7, 7, 7|8, 8, 8|2, 2, 2|2, 2, 2|5, 5, 5|5, 5, 5|2, 2, 2|7, 7, 7|1, 1, 1|1, 1, 1|8, 8, 8|5, 5, 5|7, 7, 7|4, 4, 4|] ;
capacities = [10, 10, 10] ;
